p cnf 32 28
-1 8 27 0 
-2 28 0 
-3 27 0 
-3 -4 20 28 0 
-4 20 -5 28 0 
-4 20 -6 28 0 
-7 21 23 -5 27 0 
-2 -4 20 28 0 
-8 1 29 0 
-9 -10 28 0 
-1 8 28 0 
-11 27 0 
-12 29 0 
-6 27 0 
-4 20 28 0 
-13 29 0 
-14 25 28 0 
-15 18 27 0 
-16 -3 28 0 
-17 -5 28 0 
-18 15 30 0 
-19 31 0 
-20 4 -21 7 23 -22 29 0 
-7 21 23 27 0 
-20 4 -23 7 21 29 0 
-20 4 29 0 
-24 -25 14 -26 32 -12 0 
-14 25 27 0 
